\ENCODING=ISO-8859-1
\Problem name: IP_model_monolithic

Minimize
 obj: 12.4 y1_1_1_1 + 12.4 y1_1_1_2 + 12.8 y1_1_2_1 + 12.8 y1_1_2_2
      + 12.4 y1_2_1_1 + 12.4 y1_2_1_2 + 12.8 y1_2_2_1 + 12.8 y1_2_2_2
      + 7.7 y2_1_1_1 + 7.7 y2_1_1_2 + 12.3 y2_1_2_1 + 12.3 y2_1_2_2
      + 7.7 y2_2_1_1 + 7.7 y2_2_1_2 + 12.3 y2_2_2_1 + 12.3 y2_2_2_2 + 100 z
Subject To
 c1_1_1_1: - 2000 y1_1_1_1 + x1_1_1_1 <= 0
 c1_1_1_2: - 2000 y1_1_1_2 + x1_1_1_2 <= 0
 c1_1_2_1: - 2000 y1_1_2_1 + x1_1_2_1 <= 0
 c1_1_2_2: - 2000 y1_1_2_2 + x1_1_2_2 <= 0
 c1_2_1_1: - 2000 y1_2_1_1 + x1_2_1_1 <= 0
 c1_2_1_2: - 2000 y1_2_1_2 + x1_2_1_2 <= 0
 c1_2_2_1: - 2000 y1_2_2_1 + x1_2_2_1 <= 0
 c1_2_2_2: - 2000 y1_2_2_2 + x1_2_2_2 <= 0
 c2_1_1_1: - 2000 y2_1_1_1 + x2_1_1_1 <= 0
 c2_1_1_2: - 2000 y2_1_1_2 + x2_1_1_2 <= 0
 c2_1_2_1: - 2000 y2_1_2_1 + x2_1_2_1 <= 0
 c2_1_2_2: - 2000 y2_1_2_2 + x2_1_2_2 <= 0
 c2_2_1_1: - 2000 y2_2_1_1 + x2_2_1_1 <= 0
 c2_2_1_2: - 2000 y2_2_1_2 + x2_2_1_2 <= 0
 c2_2_2_1: - 2000 y2_2_2_1 + x2_2_2_1 <= 0
 c2_2_2_2: - 2000 y2_2_2_2 + x2_2_2_2 <= 0
 c3_1:     x1_1_1_1 + x1_1_1_2 + x1_2_1_1 + x1_2_1_2 + x2_1_1_1 + x2_1_1_2
           + x2_2_1_1 + x2_2_1_2  = 9.04
 c3_2:     x1_1_2_1 + x1_1_2_2 + x1_2_2_1 + x1_2_2_2 + x2_1_2_1 + x2_1_2_2
           + x2_2_2_1 + x2_2_2_2  = 19.23
 c4_1_1:   1.24 y1_1_1_1 + 1.28 y1_1_2_1 + 0.77 y2_1_1_1 + 1.23 y2_1_2_1
           + 1.97 x1_1_1_1 + 2.22 x1_1_2_1 + 1.97 x2_1_1_1 + 2.22 x2_1_2_1
           <= 1000
 c4_1_2:   1.24 y1_1_1_2 + 1.28 y1_1_2_2 + 0.77 y2_1_1_2 + 1.23 y2_1_2_2
           + 1.97 x1_1_1_2 + 2.22 x1_1_2_2 + 1.97 x2_1_1_2 + 2.22 x2_1_2_2
           <= 1000
 c4_2_1:   1.24 y1_2_1_1 + 1.28 y1_2_2_1 + 0.77 y2_2_1_1 + 1.23 y2_2_2_1
           + 1.97 x1_2_1_1 + 2.22 x1_2_2_1 + 1.97 x2_2_1_1 + 2.22 x2_2_2_1
           <= 1000
 c4_2_2:   1.24 y1_2_1_2 + 1.28 y1_2_2_2 + 0.77 y2_2_1_2 + 1.23 y2_2_2_2
           + 1.97 x1_2_1_2 + 2.22 x1_2_2_2 + 1.97 x2_2_1_2 + 2.22 x2_2_2_2
           <= 1000
 c5_1_1:   y1_1_1_1 + y1_1_2_1 <= 1
 c5_1_2:   y1_1_1_2 + y1_1_2_2 <= 1
 c5_2_1:   y1_2_1_1 + y1_2_2_1 <= 1
 c5_2_2:   y1_2_1_2 + y1_2_2_2 <= 1
 c6_1_1_1: 1000 y1_1_1_1 + 1000 y1_1_2_1 - y2_1_1_1 >= 0
 c6_1_1_2: 1000 y1_1_1_2 + 1000 y1_1_2_2 - y2_1_1_2 >= 0
 c6_1_2_1: 1000 y1_1_1_1 + 1000 y1_1_2_1 - y2_1_2_1 >= 0
 c6_1_2_2: 1000 y1_1_1_2 + 1000 y1_1_2_2 - y2_1_2_2 >= 0
 c6_2_1_1: 1000 y1_2_1_1 + 1000 y1_2_2_1 - y2_2_1_1 >= 0
 c6_2_1_2: 1000 y1_2_1_2 + 1000 y1_2_2_2 - y2_2_1_2 >= 0
 c6_2_2_1: 1000 y1_2_1_1 + 1000 y1_2_2_1 - y2_2_2_1 >= 0
 c6_2_2_2: 1000 y1_2_1_2 + 1000 y1_2_2_2 - y2_2_2_2 >= 0
 c7_1:     - y1_1_1_1 - y1_1_2_1 - y1_2_1_1 - y1_2_2_1 + z >= 0
 c7_2:     - y1_1_1_2 - y1_1_2_2 - y1_2_1_2 - y1_2_2_2 + z >= 0
 c8_1_1_1: - y1_1_1_1 + w_1_1 >= 0
 c8_1_1_2: - y1_1_1_2 + w_1_2 >= 0
 c8_1_2_1: - y1_1_2_1 + w_2_1 >= 0
 c8_1_2_2: - y1_1_2_2 + w_2_2 >= 0
 c8_2_1_1: - y1_2_1_1 + w_1_1 >= 0
 c8_2_1_2: - y1_2_1_2 + w_1_2 >= 0
 c8_2_2_1: - y1_2_2_1 + w_2_1 >= 0
 c8_2_2_2: - y1_2_2_2 + w_2_2 >= 0
 c9_1_1_1: - y2_1_1_1 + 1000 w_1_1 >= 0
 c9_1_1_2: - y2_1_1_2 + 1000 w_1_2 >= 0
 c9_1_2_1: - y2_1_2_1 + 1000 w_2_1 >= 0
 c9_1_2_2: - y2_1_2_2 + 1000 w_2_2 >= 0
 c9_2_1_1: - y2_2_1_1 + 1000 w_1_1 >= 0
 c9_2_1_2: - y2_2_1_2 + 1000 w_1_2 >= 0
 c9_2_2_1: - y2_2_2_1 + 1000 w_2_1 >= 0
 c9_2_2_2: - y2_2_2_2 + 1000 w_2_2 >= 0
 c10_1:    w_1_1 + w_1_2 <= 10
 c10_2:    w_2_1 + w_2_2 <= 10
Bounds
 0 <= y1_1_1_1 <= 1
 0 <= y1_1_1_2 <= 1
 0 <= y1_1_2_1 <= 1
 0 <= y1_1_2_2 <= 1
 0 <= y1_2_1_1 <= 1
 0 <= y1_2_1_2 <= 1
 0 <= y1_2_2_1 <= 1
 0 <= y1_2_2_2 <= 1
      y2_1_1_1 >= 0
      y2_1_1_2 >= 0
      y2_1_2_1 >= 0
      y2_1_2_2 >= 0
      y2_2_1_1 >= 0
      y2_2_1_2 >= 0
      y2_2_2_1 >= 0
      y2_2_2_2 >= 0
 0 <= w_1_1 <= 1
 0 <= w_1_2 <= 1
 0 <= w_2_1 <= 1
 0 <= w_2_2 <= 1
      z >= 0
Binaries
 y1_1_1_1  y1_1_1_2  y1_1_2_1  y1_1_2_2  y1_2_1_1  y1_2_1_2  y1_2_2_1 
 y1_2_2_2  w_1_1  w_1_2  w_2_1  w_2_2 
Generals
 y2_1_1_1  y2_1_1_2  y2_1_2_1  y2_1_2_2  y2_2_1_1  y2_2_1_2  y2_2_2_1 
 y2_2_2_2  z 
End
